9280
9367
9493
9683
9817
9953
10105
10220
10316
10432
10515
10570
10644
10716
10799
10857
10891
10912
10933
10945
10945
10945
10945
10945
10945
10945
10945
10945
10945
10945
10945
10945
10945
10945
10945
10945
10945
10945
10945
10945
10945
10945
10945
10945
10945
10945
10945
10945
10945
10945
10945
10945
10945
10945
10945
10945
10945
10945
10945
10945
10945
10945
10945
10945
10945
10945
10945
10945
10945
10945
10945
10945
10945
10945
10945
10945
10945
10945
10945
10945
10945
10945
10945
10945
10945
10945
10945
10945
10945
10945
10945
10945
10945
10945
10945
10945
10945
10945
10945
